data/lp_files/pEFS/122_9.lp
\ Model foo
\ LP format - for model browsing. Use MPS format to capture full model detail.
Minimize
  z
Subject To
 allocateEach[1]: x[1,1] + x[2,1] + x[3,1] + x[4,1] + x[5,1] + x[6,1]
   + x[7,1] = 1
 allocateEach[2]: x[1,2] + x[2,2] + x[3,2] + x[4,2] + x[5,2] + x[6,2]
   + x[7,2] = 1
 allocateAllCash: cashProportion[1] + cashProportion[2] + cashProportion[3]
   + cashProportion[4] + cashProportion[5] + cashProportion[6]
   + cashProportion[7] = 1
 findWorstP[1,2]: z + 0.3957104981995174 cashProportion[1]
   - 0.3957104981995174 cashProportion[2] + 0.3633413794467967 x[1,1]
   + 0.2409481223536861 x[1,2] - 0.3633413794467967 x[2,1]
   - 0.2409481223536861 x[2,2] >= 0
 findWorstP[1,3]: z + 0.3957104981995174 cashProportion[1]
   - 0.3957104981995174 cashProportion[3] + 0.3633413794467967 x[1,1]
   + 0.2409481223536861 x[1,2] - 0.3633413794467967 x[3,1]
   - 0.2409481223536861 x[3,2] >= 0
 findWorstP[1,4]: z + 0.3957104981995174 cashProportion[1]
   - 0.3957104981995174 cashProportion[4] + 0.3633413794467967 x[1,1]
   + 0.2409481223536861 x[1,2] - 0.3633413794467967 x[4,1]
   - 0.2409481223536861 x[4,2] >= 0
 findWorstP[1,5]: z + 0.3957104981995174 cashProportion[1]
   - 0.3957104981995174 cashProportion[5] + 0.3633413794467967 x[1,1]
   + 0.2409481223536861 x[1,2] - 0.3633413794467967 x[5,1]
   - 0.2409481223536861 x[5,2] >= 0
 findWorstP[1,6]: z + 0.3957104981995174 cashProportion[1]
   - 0.3957104981995174 cashProportion[6] + 0.3633413794467967 x[1,1]
   + 0.2409481223536861 x[1,2] - 0.3633413794467967 x[6,1]
   - 0.2409481223536861 x[6,2] >= 0
 findWorstP[1,7]: z + 0.3957104981995174 cashProportion[1]
   - 0.3957104981995174 cashProportion[7] + 0.3633413794467967 x[1,1]
   + 0.2409481223536861 x[1,2] - 0.3633413794467967 x[7,1]
   - 0.2409481223536861 x[7,2] >= 0
 findWorstP[2,1]: z - 0.6993006993006994 cashProportion[1]
   + 0.6993006993006994 cashProportion[2] - 0.2878321678321678 x[1,1]
   - 0.0128671328671329 x[1,2] + 0.2878321678321678 x[2,1]
   + 0.0128671328671329 x[2,2] >= 0
 findWorstP[2,3]: z + 0.6993006993006994 cashProportion[2]
   - 0.6993006993006994 cashProportion[3] + 0.2878321678321678 x[2,1]
   + 0.0128671328671329 x[2,2] - 0.2878321678321678 x[3,1]
   - 0.0128671328671329 x[3,2] >= 0
 findWorstP[2,4]: z + 0.6993006993006994 cashProportion[2]
   - 0.6993006993006994 cashProportion[4] + 0.2878321678321678 x[2,1]
   + 0.0128671328671329 x[2,2] - 0.2878321678321678 x[4,1]
   - 0.0128671328671329 x[4,2] >= 0
 findWorstP[2,5]: z + 0.6993006993006994 cashProportion[2]
   - 0.6993006993006994 cashProportion[5] + 0.2878321678321678 x[2,1]
   + 0.0128671328671329 x[2,2] - 0.2878321678321678 x[5,1]
   - 0.0128671328671329 x[5,2] >= 0
 findWorstP[2,6]: z + 0.6993006993006994 cashProportion[2]
   - 0.6993006993006994 cashProportion[6] + 0.2878321678321678 x[2,1]
   + 0.0128671328671329 x[2,2] - 0.2878321678321678 x[6,1]
   - 0.0128671328671329 x[6,2] >= 0
 findWorstP[2,7]: z + 0.6993006993006994 cashProportion[2]
   - 0.6993006993006994 cashProportion[7] + 0.2878321678321678 x[2,1]
   + 0.0128671328671329 x[2,2] - 0.2878321678321678 x[7,1]
   - 0.0128671328671329 x[7,2] >= 0
 findWorstP[3,1]: z - 0.5715265474081271 cashProportion[1]
   + 0.5715265474081271 cashProportion[3] - 0.3898382579870835 x[1,1]
   - 0.0386351946047894 x[1,2] + 0.3898382579870835 x[3,1]
   + 0.0386351946047894 x[3,2] >= 0
 findWorstP[3,2]: z - 0.5715265474081271 cashProportion[2]
   + 0.5715265474081271 cashProportion[3] - 0.3898382579870835 x[2,1]
   - 0.0386351946047894 x[2,2] + 0.3898382579870835 x[3,1]
   + 0.0386351946047894 x[3,2] >= 0
 findWorstP[3,4]: z + 0.5715265474081271 cashProportion[3]
   - 0.5715265474081271 cashProportion[4] + 0.3898382579870835 x[3,1]
   + 0.0386351946047894 x[3,2] - 0.3898382579870835 x[4,1]
   - 0.0386351946047894 x[4,2] >= 0
 findWorstP[3,5]: z + 0.5715265474081271 cashProportion[3]
   - 0.5715265474081271 cashProportion[5] + 0.3898382579870835 x[3,1]
   + 0.0386351946047894 x[3,2] - 0.3898382579870835 x[5,1]
   - 0.0386351946047894 x[5,2] >= 0
 findWorstP[3,6]: z + 0.5715265474081271 cashProportion[3]
   - 0.5715265474081271 cashProportion[6] + 0.3898382579870835 x[3,1]
   + 0.0386351946047894 x[3,2] - 0.3898382579870835 x[6,1]
   - 0.0386351946047894 x[6,2] >= 0
 findWorstP[3,7]: z + 0.5715265474081271 cashProportion[3]
   - 0.5715265474081271 cashProportion[7] + 0.3898382579870835 x[3,1]
   + 0.0386351946047894 x[3,2] - 0.3898382579870835 x[7,1]
   - 0.0386351946047894 x[7,2] >= 0
 findWorstP[4,1]: z - 0.588650812338121 cashProportion[1]
   + 0.588650812338121 cashProportion[4] - 0.0729338356486932 x[1,1]
   - 0.3384153520131857 x[1,2] + 0.0729338356486932 x[4,1]
   + 0.3384153520131857 x[4,2] >= 0
 findWorstP[4,2]: z - 0.588650812338121 cashProportion[2]
   + 0.588650812338121 cashProportion[4] - 0.0729338356486932 x[2,1]
   - 0.3384153520131857 x[2,2] + 0.0729338356486932 x[4,1]
   + 0.3384153520131857 x[4,2] >= 0
 findWorstP[4,3]: z - 0.588650812338121 cashProportion[3]
   + 0.588650812338121 cashProportion[4] - 0.0729338356486932 x[3,1]
   - 0.3384153520131857 x[3,2] + 0.0729338356486932 x[4,1]
   + 0.3384153520131857 x[4,2] >= 0
 findWorstP[4,5]: z + 0.588650812338121 cashProportion[4]
   - 0.588650812338121 cashProportion[5] + 0.0729338356486932 x[4,1]
   + 0.3384153520131857 x[4,2] - 0.0729338356486932 x[5,1]
   - 0.3384153520131857 x[5,2] >= 0
 findWorstP[4,6]: z + 0.588650812338121 cashProportion[4]
   - 0.588650812338121 cashProportion[6] + 0.0729338356486932 x[4,1]
   + 0.3384153520131857 x[4,2] - 0.0729338356486932 x[6,1]
   - 0.3384153520131857 x[6,2] >= 0
 findWorstP[4,7]: z + 0.588650812338121 cashProportion[4]
   - 0.588650812338121 cashProportion[7] + 0.0729338356486932 x[4,1]
   + 0.3384153520131857 x[4,2] - 0.0729338356486932 x[7,1]
   - 0.3384153520131857 x[7,2] >= 0
 findWorstP[5,1]: z - 0.5914360066240832 cashProportion[1]
   + 0.5914360066240832 cashProportion[5] - 0.0971137922876745 x[1,1]
   - 0.3114502010882422 x[1,2] + 0.0971137922876745 x[5,1]
   + 0.3114502010882422 x[5,2] >= 0
 findWorstP[5,2]: z - 0.5914360066240832 cashProportion[2]
   + 0.5914360066240832 cashProportion[5] - 0.0971137922876745 x[2,1]
   - 0.3114502010882422 x[2,2] + 0.0971137922876745 x[5,1]
   + 0.3114502010882422 x[5,2] >= 0
 findWorstP[5,3]: z - 0.5914360066240832 cashProportion[3]
   + 0.5914360066240832 cashProportion[5] - 0.0971137922876745 x[3,1]
   - 0.3114502010882422 x[3,2] + 0.0971137922876745 x[5,1]
   + 0.3114502010882422 x[5,2] >= 0
 findWorstP[5,4]: z - 0.5914360066240832 cashProportion[4]
   + 0.5914360066240832 cashProportion[5] - 0.0971137922876745 x[4,1]
   - 0.3114502010882422 x[4,2] + 0.0971137922876745 x[5,1]
   + 0.3114502010882422 x[5,2] >= 0
 findWorstP[5,6]: z + 0.5914360066240832 cashProportion[5]
   - 0.5914360066240832 cashProportion[6] + 0.0971137922876745 x[5,1]
   + 0.3114502010882422 x[5,2] - 0.0971137922876745 x[6,1]
   - 0.3114502010882422 x[6,2] >= 0
 findWorstP[5,7]: z + 0.5914360066240832 cashProportion[5]
   - 0.5914360066240832 cashProportion[7] + 0.0971137922876745 x[5,1]
   + 0.3114502010882422 x[5,2] - 0.0971137922876745 x[7,1]
   - 0.3114502010882422 x[7,2] >= 0
 findWorstP[6,1]: z - 0.4138730237563116 cashProportion[1]
   + 0.4138730237563116 cashProportion[6] - 0.1774687525867064 x[1,1]
   - 0.408658223656982 x[1,2] + 0.1774687525867064 x[6,1]
   + 0.408658223656982 x[6,2] >= 0
 findWorstP[6,2]: z - 0.4138730237563116 cashProportion[2]
   + 0.4138730237563116 cashProportion[6] - 0.1774687525867064 x[2,1]
   - 0.408658223656982 x[2,2] + 0.1774687525867064 x[6,1]
   + 0.408658223656982 x[6,2] >= 0
 findWorstP[6,3]: z - 0.4138730237563116 cashProportion[3]
   + 0.4138730237563116 cashProportion[6] - 0.1774687525867064 x[3,1]
   - 0.408658223656982 x[3,2] + 0.1774687525867064 x[6,1]
   + 0.408658223656982 x[6,2] >= 0
 findWorstP[6,4]: z - 0.4138730237563116 cashProportion[4]
   + 0.4138730237563116 cashProportion[6] - 0.1774687525867064 x[4,1]
   - 0.408658223656982 x[4,2] + 0.1774687525867064 x[6,1]
   + 0.408658223656982 x[6,2] >= 0
 findWorstP[6,5]: z - 0.4138730237563116 cashProportion[5]
   + 0.4138730237563116 cashProportion[6] - 0.1774687525867064 x[5,1]
   - 0.408658223656982 x[5,2] + 0.1774687525867064 x[6,1]
   + 0.408658223656982 x[6,2] >= 0
 findWorstP[6,7]: z + 0.4138730237563116 cashProportion[6]
   - 0.4138730237563116 cashProportion[7] + 0.1774687525867064 x[6,1]
   + 0.408658223656982 x[6,2] - 0.1774687525867064 x[7,1]
   - 0.408658223656982 x[7,2] >= 0
 findWorstP[7,1]: z - 0.3671341508187092 cashProportion[1]
   + 0.3671341508187092 cashProportion[7] - 0.2974153755782363 x[1,1]
   - 0.3354504736030545 x[1,2] + 0.2974153755782363 x[7,1]
   + 0.3354504736030545 x[7,2] >= 0
 findWorstP[7,2]: z - 0.3671341508187092 cashProportion[2]
   + 0.3671341508187092 cashProportion[7] - 0.2974153755782363 x[2,1]
   - 0.3354504736030545 x[2,2] + 0.2974153755782363 x[7,1]
   + 0.3354504736030545 x[7,2] >= 0
 findWorstP[7,3]: z - 0.3671341508187092 cashProportion[3]
   + 0.3671341508187092 cashProportion[7] - 0.2974153755782363 x[3,1]
   - 0.3354504736030545 x[3,2] + 0.2974153755782363 x[7,1]
   + 0.3354504736030545 x[7,2] >= 0
 findWorstP[7,4]: z - 0.3671341508187092 cashProportion[4]
   + 0.3671341508187092 cashProportion[7] - 0.2974153755782363 x[4,1]
   - 0.3354504736030545 x[4,2] + 0.2974153755782363 x[7,1]
   + 0.3354504736030545 x[7,2] >= 0
 findWorstP[7,5]: z - 0.3671341508187092 cashProportion[5]
   + 0.3671341508187092 cashProportion[7] - 0.2974153755782363 x[5,1]
   - 0.3354504736030545 x[5,2] + 0.2974153755782363 x[7,1]
   + 0.3354504736030545 x[7,2] >= 0
 findWorstP[7,6]: z - 0.3671341508187092 cashProportion[6]
   + 0.3671341508187092 cashProportion[7] - 0.2974153755782363 x[6,1]
   - 0.3354504736030545 x[6,2] + 0.2974153755782363 x[7,1]
   + 0.3354504736030545 x[7,2] >= 0
Bounds
 z <= 1
 -infinity <= cashProportion[1] <= 1
 -infinity <= cashProportion[2] <= 1
 -infinity <= cashProportion[3] <= 1
 -infinity <= cashProportion[4] <= 1
 -infinity <= cashProportion[5] <= 1
 -infinity <= cashProportion[6] <= 1
 -infinity <= cashProportion[7] <= 1
Binaries
 x[1,1] x[1,2] x[2,1] x[2,2] x[3,1] x[3,2] x[4,1] x[4,2] x[5,1] x[5,2]
 x[6,1] x[6,2] x[7,1] x[7,2]
End
