data/mps_files/q3/122_9.mps
NAME foo
ROWS
 N  OBJ
 E  allocateEach[1]
 E  allocateEach[2]
 E  allocateAllCash
 G  findWorstP[1,2]
 G  findWorstP[1,3]
 G  findWorstP[1,4]
 G  findWorstP[1,5]
 G  findWorstP[1,6]
 G  findWorstP[1,7]
 G  findWorstP[2,1]
 G  findWorstP[2,3]
 G  findWorstP[2,4]
 G  findWorstP[2,5]
 G  findWorstP[2,6]
 G  findWorstP[2,7]
 G  findWorstP[3,1]
 G  findWorstP[3,2]
 G  findWorstP[3,4]
 G  findWorstP[3,5]
 G  findWorstP[3,6]
 G  findWorstP[3,7]
 G  findWorstP[4,1]
 G  findWorstP[4,2]
 G  findWorstP[4,3]
 G  findWorstP[4,5]
 G  findWorstP[4,6]
 G  findWorstP[4,7]
 G  findWorstP[5,1]
 G  findWorstP[5,2]
 G  findWorstP[5,3]
 G  findWorstP[5,4]
 G  findWorstP[5,6]
 G  findWorstP[5,7]
 G  findWorstP[6,1]
 G  findWorstP[6,2]
 G  findWorstP[6,3]
 G  findWorstP[6,4]
 G  findWorstP[6,5]
 G  findWorstP[6,7]
 G  findWorstP[7,1]
 G  findWorstP[7,2]
 G  findWorstP[7,3]
 G  findWorstP[7,4]
 G  findWorstP[7,5]
 G  findWorstP[7,6]
COLUMNS
    z         OBJ       1
    z         findWorstP[1,2]  1
    z         findWorstP[1,3]  1
    z         findWorstP[1,4]  1
    z         findWorstP[1,5]  1
    z         findWorstP[1,6]  1
    z         findWorstP[1,7]  1
    z         findWorstP[2,1]  1
    z         findWorstP[2,3]  1
    z         findWorstP[2,4]  1
    z         findWorstP[2,5]  1
    z         findWorstP[2,6]  1
    z         findWorstP[2,7]  1
    z         findWorstP[3,1]  1
    z         findWorstP[3,2]  1
    z         findWorstP[3,4]  1
    z         findWorstP[3,5]  1
    z         findWorstP[3,6]  1
    z         findWorstP[3,7]  1
    z         findWorstP[4,1]  1
    z         findWorstP[4,2]  1
    z         findWorstP[4,3]  1
    z         findWorstP[4,5]  1
    z         findWorstP[4,6]  1
    z         findWorstP[4,7]  1
    z         findWorstP[5,1]  1
    z         findWorstP[5,2]  1
    z         findWorstP[5,3]  1
    z         findWorstP[5,4]  1
    z         findWorstP[5,6]  1
    z         findWorstP[5,7]  1
    z         findWorstP[6,1]  1
    z         findWorstP[6,2]  1
    z         findWorstP[6,3]  1
    z         findWorstP[6,4]  1
    z         findWorstP[6,5]  1
    z         findWorstP[6,7]  1
    z         findWorstP[7,1]  1
    z         findWorstP[7,2]  1
    z         findWorstP[7,3]  1
    z         findWorstP[7,4]  1
    z         findWorstP[7,5]  1
    z         findWorstP[7,6]  1
    cashProportion[1]  allocateAllCash  1
    cashProportion[1]  findWorstP[1,2]  3.9571049819951737e-01
    cashProportion[1]  findWorstP[1,3]  3.9571049819951737e-01
    cashProportion[1]  findWorstP[1,4]  3.9571049819951737e-01
    cashProportion[1]  findWorstP[1,5]  3.9571049819951737e-01
    cashProportion[1]  findWorstP[1,6]  3.9571049819951737e-01
    cashProportion[1]  findWorstP[1,7]  3.9571049819951737e-01
    cashProportion[1]  findWorstP[2,1]  -6.9930069930069938e-01
    cashProportion[1]  findWorstP[3,1]  -5.7152654740812714e-01
    cashProportion[1]  findWorstP[4,1]  -0.588650812338121
    cashProportion[1]  findWorstP[5,1]  -5.9143600662408324e-01
    cashProportion[1]  findWorstP[6,1]  -4.1387302375631163e-01
    cashProportion[1]  findWorstP[7,1]  -3.6713415081870920e-01
    cashProportion[2]  allocateAllCash  1
    cashProportion[2]  findWorstP[1,2]  -3.9571049819951737e-01
    cashProportion[2]  findWorstP[2,1]  6.9930069930069938e-01
    cashProportion[2]  findWorstP[2,3]  6.9930069930069938e-01
    cashProportion[2]  findWorstP[2,4]  6.9930069930069938e-01
    cashProportion[2]  findWorstP[2,5]  6.9930069930069938e-01
    cashProportion[2]  findWorstP[2,6]  6.9930069930069938e-01
    cashProportion[2]  findWorstP[2,7]  6.9930069930069938e-01
    cashProportion[2]  findWorstP[3,2]  -5.7152654740812714e-01
    cashProportion[2]  findWorstP[4,2]  -0.588650812338121
    cashProportion[2]  findWorstP[5,2]  -5.9143600662408324e-01
    cashProportion[2]  findWorstP[6,2]  -4.1387302375631163e-01
    cashProportion[2]  findWorstP[7,2]  -3.6713415081870920e-01
    cashProportion[3]  allocateAllCash  1
    cashProportion[3]  findWorstP[1,3]  -3.9571049819951737e-01
    cashProportion[3]  findWorstP[2,3]  -6.9930069930069938e-01
    cashProportion[3]  findWorstP[3,1]  5.7152654740812714e-01
    cashProportion[3]  findWorstP[3,2]  5.7152654740812714e-01
    cashProportion[3]  findWorstP[3,4]  5.7152654740812714e-01
    cashProportion[3]  findWorstP[3,5]  5.7152654740812714e-01
    cashProportion[3]  findWorstP[3,6]  5.7152654740812714e-01
    cashProportion[3]  findWorstP[3,7]  5.7152654740812714e-01
    cashProportion[3]  findWorstP[4,3]  -0.588650812338121
    cashProportion[3]  findWorstP[5,3]  -5.9143600662408324e-01
    cashProportion[3]  findWorstP[6,3]  -4.1387302375631163e-01
    cashProportion[3]  findWorstP[7,3]  -3.6713415081870920e-01
    cashProportion[4]  allocateAllCash  1
    cashProportion[4]  findWorstP[1,4]  -3.9571049819951737e-01
    cashProportion[4]  findWorstP[2,4]  -6.9930069930069938e-01
    cashProportion[4]  findWorstP[3,4]  -5.7152654740812714e-01
    cashProportion[4]  findWorstP[4,1]  0.588650812338121
    cashProportion[4]  findWorstP[4,2]  0.588650812338121
    cashProportion[4]  findWorstP[4,3]  0.588650812338121
    cashProportion[4]  findWorstP[4,5]  0.588650812338121
    cashProportion[4]  findWorstP[4,6]  0.588650812338121
    cashProportion[4]  findWorstP[4,7]  0.588650812338121
    cashProportion[4]  findWorstP[5,4]  -5.9143600662408324e-01
    cashProportion[4]  findWorstP[6,4]  -4.1387302375631163e-01
    cashProportion[4]  findWorstP[7,4]  -3.6713415081870920e-01
    cashProportion[5]  allocateAllCash  1
    cashProportion[5]  findWorstP[1,5]  -3.9571049819951737e-01
    cashProportion[5]  findWorstP[2,5]  -6.9930069930069938e-01
    cashProportion[5]  findWorstP[3,5]  -5.7152654740812714e-01
    cashProportion[5]  findWorstP[4,5]  -0.588650812338121
    cashProportion[5]  findWorstP[5,1]  5.9143600662408324e-01
    cashProportion[5]  findWorstP[5,2]  5.9143600662408324e-01
    cashProportion[5]  findWorstP[5,3]  5.9143600662408324e-01
    cashProportion[5]  findWorstP[5,4]  5.9143600662408324e-01
    cashProportion[5]  findWorstP[5,6]  5.9143600662408324e-01
    cashProportion[5]  findWorstP[5,7]  5.9143600662408324e-01
    cashProportion[5]  findWorstP[6,5]  -4.1387302375631163e-01
    cashProportion[5]  findWorstP[7,5]  -3.6713415081870920e-01
    cashProportion[6]  allocateAllCash  1
    cashProportion[6]  findWorstP[1,6]  -3.9571049819951737e-01
    cashProportion[6]  findWorstP[2,6]  -6.9930069930069938e-01
    cashProportion[6]  findWorstP[3,6]  -5.7152654740812714e-01
    cashProportion[6]  findWorstP[4,6]  -0.588650812338121
    cashProportion[6]  findWorstP[5,6]  -5.9143600662408324e-01
    cashProportion[6]  findWorstP[6,1]  4.1387302375631163e-01
    cashProportion[6]  findWorstP[6,2]  4.1387302375631163e-01
    cashProportion[6]  findWorstP[6,3]  4.1387302375631163e-01
    cashProportion[6]  findWorstP[6,4]  4.1387302375631163e-01
    cashProportion[6]  findWorstP[6,5]  4.1387302375631163e-01
    cashProportion[6]  findWorstP[6,7]  4.1387302375631163e-01
    cashProportion[6]  findWorstP[7,6]  -3.6713415081870920e-01
    cashProportion[7]  allocateAllCash  1
    cashProportion[7]  findWorstP[1,7]  -3.9571049819951737e-01
    cashProportion[7]  findWorstP[2,7]  -6.9930069930069938e-01
    cashProportion[7]  findWorstP[3,7]  -5.7152654740812714e-01
    cashProportion[7]  findWorstP[4,7]  -0.588650812338121
    cashProportion[7]  findWorstP[5,7]  -5.9143600662408324e-01
    cashProportion[7]  findWorstP[6,7]  -4.1387302375631163e-01
    cashProportion[7]  findWorstP[7,1]  3.6713415081870920e-01
    cashProportion[7]  findWorstP[7,2]  3.6713415081870920e-01
    cashProportion[7]  findWorstP[7,3]  3.6713415081870920e-01
    cashProportion[7]  findWorstP[7,4]  3.6713415081870920e-01
    cashProportion[7]  findWorstP[7,5]  3.6713415081870920e-01
    cashProportion[7]  findWorstP[7,6]  3.6713415081870920e-01
    MARKER    'MARKER'                 'INTORG'
    x[1,1]    allocateEach[1]  1
    x[1,1]    findWorstP[1,2]  3.6334137944679673e-01
    x[1,1]    findWorstP[1,3]  3.6334137944679673e-01
    x[1,1]    findWorstP[1,4]  3.6334137944679673e-01
    x[1,1]    findWorstP[1,5]  3.6334137944679673e-01
    x[1,1]    findWorstP[1,6]  3.6334137944679673e-01
    x[1,1]    findWorstP[1,7]  3.6334137944679673e-01
    x[1,1]    findWorstP[2,1]  -2.8783216783216781e-01
    x[1,1]    findWorstP[3,1]  -3.8983825798708349e-01
    x[1,1]    findWorstP[4,1]  -7.2933835648693171e-02
    x[1,1]    findWorstP[5,1]  -9.7113792287674458e-02
    x[1,1]    findWorstP[6,1]  -1.7746875258670639e-01
    x[1,1]    findWorstP[7,1]  -2.9741537557823627e-01
    x[1,2]    allocateEach[2]  1
    x[1,2]    findWorstP[1,2]  2.4094812235368607e-01
    x[1,2]    findWorstP[1,3]  2.4094812235368607e-01
    x[1,2]    findWorstP[1,4]  2.4094812235368607e-01
    x[1,2]    findWorstP[1,5]  2.4094812235368607e-01
    x[1,2]    findWorstP[1,6]  2.4094812235368607e-01
    x[1,2]    findWorstP[1,7]  2.4094812235368607e-01
    x[1,2]    findWorstP[2,1]  -1.2867132867132867e-02
    x[1,2]    findWorstP[3,1]  -3.8635194604789383e-02
    x[1,2]    findWorstP[4,1]  -3.3841535201318568e-01
    x[1,2]    findWorstP[5,1]  -3.1145020108824217e-01
    x[1,2]    findWorstP[6,1]  -0.408658223656982
    x[1,2]    findWorstP[7,1]  -3.3545047360305452e-01
    x[2,1]    allocateEach[1]  1
    x[2,1]    findWorstP[1,2]  -3.6334137944679673e-01
    x[2,1]    findWorstP[2,1]  2.8783216783216781e-01
    x[2,1]    findWorstP[2,3]  2.8783216783216781e-01
    x[2,1]    findWorstP[2,4]  2.8783216783216781e-01
    x[2,1]    findWorstP[2,5]  2.8783216783216781e-01
    x[2,1]    findWorstP[2,6]  2.8783216783216781e-01
    x[2,1]    findWorstP[2,7]  2.8783216783216781e-01
    x[2,1]    findWorstP[3,2]  -3.8983825798708349e-01
    x[2,1]    findWorstP[4,2]  -7.2933835648693171e-02
    x[2,1]    findWorstP[5,2]  -9.7113792287674458e-02
    x[2,1]    findWorstP[6,2]  -1.7746875258670639e-01
    x[2,1]    findWorstP[7,2]  -2.9741537557823627e-01
    x[2,2]    allocateEach[2]  1
    x[2,2]    findWorstP[1,2]  -2.4094812235368607e-01
    x[2,2]    findWorstP[2,1]  1.2867132867132867e-02
    x[2,2]    findWorstP[2,3]  1.2867132867132867e-02
    x[2,2]    findWorstP[2,4]  1.2867132867132867e-02
    x[2,2]    findWorstP[2,5]  1.2867132867132867e-02
    x[2,2]    findWorstP[2,6]  1.2867132867132867e-02
    x[2,2]    findWorstP[2,7]  1.2867132867132867e-02
    x[2,2]    findWorstP[3,2]  -3.8635194604789383e-02
    x[2,2]    findWorstP[4,2]  -3.3841535201318568e-01
    x[2,2]    findWorstP[5,2]  -3.1145020108824217e-01
    x[2,2]    findWorstP[6,2]  -0.408658223656982
    x[2,2]    findWorstP[7,2]  -3.3545047360305452e-01
    x[3,1]    allocateEach[1]  1
    x[3,1]    findWorstP[1,3]  -3.6334137944679673e-01
    x[3,1]    findWorstP[2,3]  -2.8783216783216781e-01
    x[3,1]    findWorstP[3,1]  3.8983825798708349e-01
    x[3,1]    findWorstP[3,2]  3.8983825798708349e-01
    x[3,1]    findWorstP[3,4]  3.8983825798708349e-01
    x[3,1]    findWorstP[3,5]  3.8983825798708349e-01
    x[3,1]    findWorstP[3,6]  3.8983825798708349e-01
    x[3,1]    findWorstP[3,7]  3.8983825798708349e-01
    x[3,1]    findWorstP[4,3]  -7.2933835648693171e-02
    x[3,1]    findWorstP[5,3]  -9.7113792287674458e-02
    x[3,1]    findWorstP[6,3]  -1.7746875258670639e-01
    x[3,1]    findWorstP[7,3]  -2.9741537557823627e-01
    x[3,2]    allocateEach[2]  1
    x[3,2]    findWorstP[1,3]  -2.4094812235368607e-01
    x[3,2]    findWorstP[2,3]  -1.2867132867132867e-02
    x[3,2]    findWorstP[3,1]  3.8635194604789383e-02
    x[3,2]    findWorstP[3,2]  3.8635194604789383e-02
    x[3,2]    findWorstP[3,4]  3.8635194604789383e-02
    x[3,2]    findWorstP[3,5]  3.8635194604789383e-02
    x[3,2]    findWorstP[3,6]  3.8635194604789383e-02
    x[3,2]    findWorstP[3,7]  3.8635194604789383e-02
    x[3,2]    findWorstP[4,3]  -3.3841535201318568e-01
    x[3,2]    findWorstP[5,3]  -3.1145020108824217e-01
    x[3,2]    findWorstP[6,3]  -0.408658223656982
    x[3,2]    findWorstP[7,3]  -3.3545047360305452e-01
    x[4,1]    allocateEach[1]  1
    x[4,1]    findWorstP[1,4]  -3.6334137944679673e-01
    x[4,1]    findWorstP[2,4]  -2.8783216783216781e-01
    x[4,1]    findWorstP[3,4]  -3.8983825798708349e-01
    x[4,1]    findWorstP[4,1]  7.2933835648693171e-02
    x[4,1]    findWorstP[4,2]  7.2933835648693171e-02
    x[4,1]    findWorstP[4,3]  7.2933835648693171e-02
    x[4,1]    findWorstP[4,5]  7.2933835648693171e-02
    x[4,1]    findWorstP[4,6]  7.2933835648693171e-02
    x[4,1]    findWorstP[4,7]  7.2933835648693171e-02
    x[4,1]    findWorstP[5,4]  -9.7113792287674458e-02
    x[4,1]    findWorstP[6,4]  -1.7746875258670639e-01
    x[4,1]    findWorstP[7,4]  -2.9741537557823627e-01
    x[4,2]    allocateEach[2]  1
    x[4,2]    findWorstP[1,4]  -2.4094812235368607e-01
    x[4,2]    findWorstP[2,4]  -1.2867132867132867e-02
    x[4,2]    findWorstP[3,4]  -3.8635194604789383e-02
    x[4,2]    findWorstP[4,1]  3.3841535201318568e-01
    x[4,2]    findWorstP[4,2]  3.3841535201318568e-01
    x[4,2]    findWorstP[4,3]  3.3841535201318568e-01
    x[4,2]    findWorstP[4,5]  3.3841535201318568e-01
    x[4,2]    findWorstP[4,6]  3.3841535201318568e-01
    x[4,2]    findWorstP[4,7]  3.3841535201318568e-01
    x[4,2]    findWorstP[5,4]  -3.1145020108824217e-01
    x[4,2]    findWorstP[6,4]  -0.408658223656982
    x[4,2]    findWorstP[7,4]  -3.3545047360305452e-01
    x[5,1]    allocateEach[1]  1
    x[5,1]    findWorstP[1,5]  -3.6334137944679673e-01
    x[5,1]    findWorstP[2,5]  -2.8783216783216781e-01
    x[5,1]    findWorstP[3,5]  -3.8983825798708349e-01
    x[5,1]    findWorstP[4,5]  -7.2933835648693171e-02
    x[5,1]    findWorstP[5,1]  9.7113792287674458e-02
    x[5,1]    findWorstP[5,2]  9.7113792287674458e-02
    x[5,1]    findWorstP[5,3]  9.7113792287674458e-02
    x[5,1]    findWorstP[5,4]  9.7113792287674458e-02
    x[5,1]    findWorstP[5,6]  9.7113792287674458e-02
    x[5,1]    findWorstP[5,7]  9.7113792287674458e-02
    x[5,1]    findWorstP[6,5]  -1.7746875258670639e-01
    x[5,1]    findWorstP[7,5]  -2.9741537557823627e-01
    x[5,2]    allocateEach[2]  1
    x[5,2]    findWorstP[1,5]  -2.4094812235368607e-01
    x[5,2]    findWorstP[2,5]  -1.2867132867132867e-02
    x[5,2]    findWorstP[3,5]  -3.8635194604789383e-02
    x[5,2]    findWorstP[4,5]  -3.3841535201318568e-01
    x[5,2]    findWorstP[5,1]  3.1145020108824217e-01
    x[5,2]    findWorstP[5,2]  3.1145020108824217e-01
    x[5,2]    findWorstP[5,3]  3.1145020108824217e-01
    x[5,2]    findWorstP[5,4]  3.1145020108824217e-01
    x[5,2]    findWorstP[5,6]  3.1145020108824217e-01
    x[5,2]    findWorstP[5,7]  3.1145020108824217e-01
    x[5,2]    findWorstP[6,5]  -0.408658223656982
    x[5,2]    findWorstP[7,5]  -3.3545047360305452e-01
    x[6,1]    allocateEach[1]  1
    x[6,1]    findWorstP[1,6]  -3.6334137944679673e-01
    x[6,1]    findWorstP[2,6]  -2.8783216783216781e-01
    x[6,1]    findWorstP[3,6]  -3.8983825798708349e-01
    x[6,1]    findWorstP[4,6]  -7.2933835648693171e-02
    x[6,1]    findWorstP[5,6]  -9.7113792287674458e-02
    x[6,1]    findWorstP[6,1]  1.7746875258670639e-01
    x[6,1]    findWorstP[6,2]  1.7746875258670639e-01
    x[6,1]    findWorstP[6,3]  1.7746875258670639e-01
    x[6,1]    findWorstP[6,4]  1.7746875258670639e-01
    x[6,1]    findWorstP[6,5]  1.7746875258670639e-01
    x[6,1]    findWorstP[6,7]  1.7746875258670639e-01
    x[6,1]    findWorstP[7,6]  -2.9741537557823627e-01
    x[6,2]    allocateEach[2]  1
    x[6,2]    findWorstP[1,6]  -2.4094812235368607e-01
    x[6,2]    findWorstP[2,6]  -1.2867132867132867e-02
    x[6,2]    findWorstP[3,6]  -3.8635194604789383e-02
    x[6,2]    findWorstP[4,6]  -3.3841535201318568e-01
    x[6,2]    findWorstP[5,6]  -3.1145020108824217e-01
    x[6,2]    findWorstP[6,1]  0.408658223656982
    x[6,2]    findWorstP[6,2]  0.408658223656982
    x[6,2]    findWorstP[6,3]  0.408658223656982
    x[6,2]    findWorstP[6,4]  0.408658223656982
    x[6,2]    findWorstP[6,5]  0.408658223656982
    x[6,2]    findWorstP[6,7]  0.408658223656982
    x[6,2]    findWorstP[7,6]  -3.3545047360305452e-01
    x[7,1]    allocateEach[1]  1
    x[7,1]    findWorstP[1,7]  -3.6334137944679673e-01
    x[7,1]    findWorstP[2,7]  -2.8783216783216781e-01
    x[7,1]    findWorstP[3,7]  -3.8983825798708349e-01
    x[7,1]    findWorstP[4,7]  -7.2933835648693171e-02
    x[7,1]    findWorstP[5,7]  -9.7113792287674458e-02
    x[7,1]    findWorstP[6,7]  -1.7746875258670639e-01
    x[7,1]    findWorstP[7,1]  2.9741537557823627e-01
    x[7,1]    findWorstP[7,2]  2.9741537557823627e-01
    x[7,1]    findWorstP[7,3]  2.9741537557823627e-01
    x[7,1]    findWorstP[7,4]  2.9741537557823627e-01
    x[7,1]    findWorstP[7,5]  2.9741537557823627e-01
    x[7,1]    findWorstP[7,6]  2.9741537557823627e-01
    x[7,2]    allocateEach[2]  1
    x[7,2]    findWorstP[1,7]  -2.4094812235368607e-01
    x[7,2]    findWorstP[2,7]  -1.2867132867132867e-02
    x[7,2]    findWorstP[3,7]  -3.8635194604789383e-02
    x[7,2]    findWorstP[4,7]  -3.3841535201318568e-01
    x[7,2]    findWorstP[5,7]  -3.1145020108824217e-01
    x[7,2]    findWorstP[6,7]  -0.408658223656982
    x[7,2]    findWorstP[7,1]  3.3545047360305452e-01
    x[7,2]    findWorstP[7,2]  3.3545047360305452e-01
    x[7,2]    findWorstP[7,3]  3.3545047360305452e-01
    x[7,2]    findWorstP[7,4]  3.3545047360305452e-01
    x[7,2]    findWorstP[7,5]  3.3545047360305452e-01
    x[7,2]    findWorstP[7,6]  3.3545047360305452e-01
    MARKER    'MARKER'                 'INTEND'
RHS
    RHS1      allocateEach[1]  1
    RHS1      allocateEach[2]  1
    RHS1      allocateAllCash  1
BOUNDS
 UP BND1      z         1
 MI BND1      cashProportion[1]
 UP BND1      cashProportion[1]  1
 MI BND1      cashProportion[2]
 UP BND1      cashProportion[2]  1
 MI BND1      cashProportion[3]
 UP BND1      cashProportion[3]  1
 MI BND1      cashProportion[4]
 UP BND1      cashProportion[4]  1
 MI BND1      cashProportion[5]
 UP BND1      cashProportion[5]  1
 MI BND1      cashProportion[6]
 UP BND1      cashProportion[6]  1
 MI BND1      cashProportion[7]
 UP BND1      cashProportion[7]  1
 BV BND1      x[1,1]  
 BV BND1      x[1,2]  
 BV BND1      x[2,1]  
 BV BND1      x[2,2]  
 BV BND1      x[3,1]  
 BV BND1      x[3,2]  
 BV BND1      x[4,1]  
 BV BND1      x[4,2]  
 BV BND1      x[5,1]  
 BV BND1      x[5,2]  
 BV BND1      x[6,1]  
 BV BND1      x[6,2]  
 BV BND1      x[7,1]  
 BV BND1      x[7,2]  
ENDATA
